x05m05e0t1tp5_00
3045
3045
3045
3366
3366
3366
3366
3366
3366
3366
3366
3366
3366
3463
3463
3463
3463
3463
3463
3463
3463
3463
3463
3463
3463
3463
3463
3463
3463
3463
3463
3463
3463
3463
3463
3463
3463
3463
3463
3463
3463
3463
3463
3463
3463
3463
3463
3463
3463
3463
3463
3463
3463
3463
3477
3477
3477
3477
3477
3477
3477
3477
3477
3477
3477
3477
3477
3477
3477
3477
3477
3477
3477
3477
3477
3477
3477
3477
3477
3477
3477
3477
3477
3477
3477
3477
3612
3612
3612
3612
3612
3612
3612
3612
3612
3612
3612
3612
3612
3612
3612
3612
3612
3612
3612
3612
3612
3612
3612
3612
3612
3612
3612
3612
3612
3612
3612
3612
3612
3612
3612
3612
3612
3612
3612
3612
3612
3612
3612
3612
3612
3612
3612
3612
3612
3612
3612
3612
3612
3612
3612
3612
3612
3612
3612
3612
3612
3612
3612
3612
3612
3612
3612
3612
3612
3612
3612
3612
3612
3612
3612
3612
3612
3612
3612
3612
3612
3612
3612
3612
3612
3612
3612
3612
3612
3612
3612
3612
3612
3612
3612
3612
3612
3612
3612
3612
3612
3612
3612
3612
3612
3612
3612
3612
3612
3612
3612
3612
3612
3612
3612
3612
3612
3612
3612
3612
3612
3612
3612
3612
3612
3612
3612
3612
3612
3612
3612
3612
3612
3612
3612
3612
3612
3612
3612
3612
3612
3612
3612
3612
3612
3612
3612
3612
3612
3612
3612
3612
3612
3612
3612
3612
3612
3612
3612
3612
3612
3612
3612
3612
3612
3612
3612
3612
3612
3612
3612
3612
3612
3612
3612
3612
3612
3612
3612
3612
3612
3612
3612
3612
3612
3612
3612
3612
3612
3612
3612
3612
3612
3612
3612
3612
3612
3612
3612
3612
3612
3612
3612
3612
3612
3612
3612
3612
3612
3612
3612
3612
3612
3612
3612
3612
3612
3612
3612
3612
3612
3612
3612
3612
3612
3612
3612
3612
3612
3612
3612
3612
3612
3612
3612
3612
3612
3612
3612
3612
3612
3612
3612
3612
3612
3612
3612
3612
3612
3612
3612
3612
3612
3612
3612
3612
3612
3612
3612
3612
3612
3612
3612
3612
3612
3612
3612
3612
3612
3612
3612
3612
3612
3612
3612
3612
3612
3612
3612
3612
3612
3612
3612
3612
3612
3612
3612
3612
3612
3612
3612
3612
3612
3612
3612
3612
3612
3612
3612
3612
3612
3612
3612
3612
3612
3612
3612
3612
3612
3612
3612
3612
3612
3612
3612
3612
3612
3612
3612
3612
3612
3612
3612
3612
3612
3612
3612
3612
3612
3612
3612
3612
3612
3612
3612
3612
3612
3612
3612
3612
3612
3612
3612
3612
3612
3612
3612
3612
3612
3612
3612
3612
3612
3612
3612
3612
3612
3612
3612
3612
3612
3612
3612
3612
3612
3612
3612
3612
3612
3612
3612
3612
3612
3612
3612
3612
3612
3612
3612
3612
3612
3612
3612
3612
3612
3612
3612
3612
3612
3612
3612
3612
3612
3612
3612
3612
3612
3612
3612
3612
3612
3612
3612
3612
3612
3612
3612
3612
3612
3612
3612
3612
3612
3612
3612
3612
3612
3612
3612
3612
3612
3612
3612
3612
3612
3612
3612
3612
3612
3612
3612
3612
3612
3612
3612
3612
3612
3612
3612
3612
3612
3612
3612
3612
3612
3612
3612
3612
3612
3612
3612
3612
3612
3612
3612
3612
3612
3612
3612
3612
3612
3612
3612
3612
3612
3612
3612
3612
3612
3612
3612
3612
3612
3612
3612
3612
3612
3612
3612
3612
3612
3612
3612
3612
3612
3612
3612
3612
3612
3612
3612
3612
3612
3612
3612
3612
3612
3612
3612
3612
3612
3612
3612
3612
3612
3612
3612
3612
3612
3612
3612
3612
3612
3612
3612
3612
3612
3612
3612
3612
3612
3612
3612
3612
3612
3612
3612
3612
3612
3612
3612
3612
3612
3612
3612
3612
3612
3612
3612
3612
3612
3612
3612
3612
3612
3612
3612
3612
3612
3612
3612
3612
3612
3612
3612
3612
3612
3612
3612
3612
3612
3612
3612
3612
3612
3612
3612
3612
3612
3612
3612
3612
3612
3612
3612
3612
3612
3612
3612
3612
3612
3612
3612
3612
3612
3612
3612
3612
3612
3612
3612
3612
3612
3612
3612
3612
3612
3612
3612
3612
3612
3612
3612
3612
3612
3612
3612
3612
3612
3612
3612
3612
3612
3612
3612
3612
3612
3612
3612
3612
3612
3612
3612
3612
3612
3612
3612
3612
3612
3612
3612
3612
3612
3612
3612
3612
3612
3612
3612
3612
3612
3612
3612
3612
3612
3612
3612
3612
3612
3612
3612
3612
3612
3612
3612
3612
3612
3612
3612
3612
3612
3612
3612
3612
3612
3612
3612
3612
3612
3612
3612
3612
3612
3612
3612
3612
3612
3612
3612
3612
3612
3612
3612
3612
3612
3612
3612
3612
3612
3612
3612
3612
3612
3612
3612
3612
3612
3612
3612
3612
3612
3612
3612
3612
3612
3612
3612
3612
3612
3612
3612
3612
3612
3612
3612
3612
3612
3612
3612
3612
3612
3612
3612
3612
3612
3612
3612
3612
3612
3612
3612
3612
3612
3612
3612
3612
3612
3612
3612
3612
3612
3612
3612
3612
3612
3612
3612
3612
3612
3612
3612
3612
3612
3612
3612
3612
3612
3612
3612
3612
3612
3612
3612
3612
3612
3612
3612
3612
3612
3612
3612
3612
3612
3612
3612
3612
3612
3612
3612
3612
3612
3612
3612
3612
3612
3612
3612
3612
3612
3612
3612
3612
3612
3612
3612
3612
3612
3612
3612
3612
3612
3612
3612
3612
3612
3612
3612
3612
3612
3612
3612
3612
3612
3612
3612
3612
3612
3612
3612
3612
3612
3612
3612
3612
3612
3612
3612
3612
3612
3612
3612
3612
3612
3612
3612
3612
3612
3612
3612
3612
3612
3612
3612
3612
3612
3612
3612
3612
3612
3612
3612
3612
3612
3612
3612
3612
3612
3612
3612
3612
3612
3612
3612
3612
3612
3612
3612
3612
3612
3612
3612
3612
3612
3612
3612
3612
3612
3612
3612
3612
3612
3612
3612
3612
3612
3612
3612
3612
3612
3612
3612
3612
3612
3612
3612
3612
3612
3612
3612
3612
3612
3612
3612
3612
3612
3612
3612
3612
3612
3612
3612
3612
3612
3612
